DATASET = "thpack2";
INSTANCE = "057";

WIDTH = 233;
HEIGHT = 220;
LENGTH = 587;

NO_OF_SHAPES = 5;
size = [|
  85,73,40 |
  73,62,54 |
  90,63,41 |
  75,61,24 |
  57,53,44 |
|];

verticality = [|
  0,1,1 |
  1,1,1 |
  0,1,1 |
  0,0,1 |
  1,1,1 |
|];

box_count = [
  24,
  37,
  27,
  34,
  37,
];
